50
    73    59    12    53    64    83    37    12    71    27    82    17    73    97    83    94    92    65    70    85    88    67    62    46    63     5    67    51    59    47    86    88    59    28     9    61    87    47    19    90     7    68    86     9    23    22    74    70    82     5
     5     2     9     2     3     3     2     7     8     5    10     9     2     3     1    10     8    10     3     5     4     2     8     4     8     1     9     2     1     2     3     9     6     8     6     9     8     2    10     1     4     6     4    10     5     2     7     2     1     3
   866   317   941   465  1423  1270  1612   297   509  1537  1949  1271   426  1533  1489  1125  1034  1328  1062  1661  1493   801  1562  1723  1170   648  1893  1149  1374   849  1131   522  1185  1670  1546  1739   890   440   608   981  1187  1015   778  1145  1550   398  1516  1422  1125  1596
